
Gurobi 6.5.0 (linux64) logging started Mon Dec 14 23:38:15 2015

Optimize a model with 2 rows, 3 columns and 5 nonzeros
Coefficient statistics:
  Matrix range    [1e+00, 3e+00]
  Objective range [1e+00, 2e+00]
  Bounds range    [1e+00, 1e+00]
  RHS range       [1e+00, 4e+00]
Found heuristic solution: objective 2
Presolve removed 2 rows and 3 columns
Presolve time: 0.00s
Presolve: All rows and columns removed

Explored 0 nodes (0 simplex iterations) in 0.00 seconds
Thread count was 1 (of 4 available processors)

Optimal solution found (tolerance 1.00e-04)
Best objective 3.000000000000e+00, best bound 3.000000000000e+00, gap 0.0%

Gurobi 6.5.0 (linux64) logging started Tue Dec 15 11:26:25 2015

Optimize a model with 2 rows, 3 columns and 5 nonzeros
Coefficient statistics:
  Matrix range    [1e+00, 3e+00]
  Objective range [1e+00, 2e+00]
  Bounds range    [1e+00, 1e+00]
  RHS range       [1e+00, 4e+00]
Found heuristic solution: objective 2
Presolve removed 2 rows and 3 columns
Presolve time: 0.01s
Presolve: All rows and columns removed

Explored 0 nodes (0 simplex iterations) in 0.02 seconds
Thread count was 1 (of 4 available processors)

Optimal solution found (tolerance 1.00e-04)
Best objective 3.000000000000e+00, best bound 3.000000000000e+00, gap 0.0%

Gurobi 6.5.0 (linux64) logging started Tue Dec 15 13:22:28 2015

Optimize a model with 2 rows, 3 columns and 5 nonzeros
Coefficient statistics:
  Matrix range    [1e+00, 3e+00]
  Objective range [1e+00, 2e+00]
  Bounds range    [1e+00, 1e+00]
  RHS range       [1e+00, 4e+00]
Found heuristic solution: objective 2
Presolve removed 2 rows and 3 columns
Presolve time: 0.00s
Presolve: All rows and columns removed

Explored 0 nodes (0 simplex iterations) in 0.01 seconds
Thread count was 1 (of 4 available processors)

Optimal solution found (tolerance 1.00e-04)
Best objective 3.000000000000e+00, best bound 3.000000000000e+00, gap 0.0%
Optimize a model with 40002 rows, 40200 columns and 80400 nonzeros
Coefficient statistics:
  Matrix range    [1e+00, 1e+00]
  Objective range [2e-03, 1e+00]
  Bounds range    [1e+00, 1e+00]
  RHS range       [1e+00, 2e+01]
Found heuristic solution: objective 0.208449
Presolve removed 39800 rows and 39800 columns
Presolve time: 0.03s
Presolved: 202 rows, 400 columns, 800 nonzeros
Variable types: 0 continuous, 400 integer (400 binary)
Found heuristic solution: objective 0.0000000

Explored 0 nodes (0 simplex iterations) in 0.05 seconds
Thread count was 4 (of 4 available processors)

Optimal solution found (tolerance 1.00e-04)
Best objective 0.000000000000e+00, best bound 0.000000000000e+00, gap 0.0%
Optimize a model with 40002 rows, 40200 columns and 80400 nonzeros
Coefficient statistics:
  Matrix range    [1e+00, 1e+00]
  Objective range [2e-03, 1e+00]
  Bounds range    [1e+00, 1e+00]
  RHS range       [1e+00, 2e+01]
Found heuristic solution: objective 0.708945
Presolve removed 39800 rows and 39800 columns
Presolve time: 0.03s
Presolved: 202 rows, 400 columns, 800 nonzeros
Variable types: 0 continuous, 400 integer (400 binary)

Root relaxation: objective 0.000000e+00, 21 iterations, 0.00 seconds

    Nodes    |    Current Node    |     Objective Bounds      |     Work
 Expl Unexpl |  Obj  Depth IntInf | Incumbent    BestBd   Gap | It/Node Time

*    0     0               0       0.0000000    0.00000  0.00%     -    0s

Explored 0 nodes (21 simplex iterations) in 0.05 seconds
Thread count was 4 (of 4 available processors)

Optimal solution found (tolerance 1.00e-04)
Best objective 0.000000000000e+00, best bound 0.000000000000e+00, gap 0.0%
Optimize a model with 2 rows, 3 columns and 5 nonzeros
Coefficient statistics:
  Matrix range    [1e+00, 3e+00]
  Objective range [1e+00, 2e+00]
  Bounds range    [1e+00, 1e+00]
  RHS range       [1e+00, 4e+00]
Found heuristic solution: objective 2
Presolve removed 2 rows and 3 columns
Presolve time: 0.00s
Presolve: All rows and columns removed

Explored 0 nodes (0 simplex iterations) in 0.00 seconds
Thread count was 1 (of 4 available processors)

Optimal solution found (tolerance 1.00e-04)
Best objective 3.000000000000e+00, best bound 3.000000000000e+00, gap 0.0%
